5460.0 261659.0 
5423.0 264085.0 
5384.0 265220.0 
5448.0 262454.0 
5355.0 270258.0 
5485.0 261249.0 
5457.0 262172.0 
5350.0 272655.0 
5455.0 262296.0 
5389.0 264973.0 
5417.0 264485.0 
5424.0 262929.0 
5356.0 268911.0 
5367.0 266103.0 
